NAME : A-n15-k5
COMMENT : (Augerat et al, No of trucks: 5, Optimal value: 661)
TYPE : CVRP
DIMENSION : 33
EDGE_WEIGHT_TYPE : EUC_2D 
CAPACITY : 50
NODE_COORD_SECTION 
 1 42 68
 2 77 97
 3 28 64
 4 77 39
 5 32 33
 6 32 8
 7 42 92
 8 8 3
 9 7 14
 10 82 17
 11 48 13
 12 53 82
 13 39 27
 14 7 24
 15 67 98
DEMAND_SECTION 
1 0 
2 5 
3 23 
4 14 
5 13 
6 8 
7 18 
8 19 
9 10 
10 18 
11 20 
12 5 
13 9 
14 23 
15 9 
DEPOT_SECTION 
 1  
 -1  
EOF 
